N = 5;
H = 6;
T = 2;

avail = array3d(1..N, 1..H, 1..T, [0, 7, 5, 7, 0, 7, 4, 1, 3, 6, 5, 1, 8, 1, 6, 10, 7, 2, 3, 8, 8, 9, 6, 9, 9, 0, 1, 4, 3, 2, 2, 6, 6, 4, 4, 3, 10, 5, 7, 10, 9, 2, 8, 1, 10, 10, 3, 1, 4, 2, 1, 5, 0, 8, 4, 6, 9, 6, 2, 3]);

r = array2d(1..H, 1..T, [1, 1, 1, 1, 1, 1, 1, 1, 2, 2, 1, 1]);
